; --full-saturate-quant --inst-when=full-last-call --inst-no-entail --term-db-mode=relevant --random-seed=1 --lang=smt2 --tlimit 580
;(set-option :produce-unsat-cores true)
(set-logic ALL_SUPPORTED)
(declare-sort A$ 0)
(declare-sort B$ 0)
(declare-sort A_a_fun$ 0)
(declare-sort A_b_fun$ 0)
(declare-sort B_a_fun$ 0)
(declare-sort B_b_fun$ 0)
(declare-codatatypes () ((B_llist$ (lNil$) (lCons$ (lhd$ B$) (ltl$ B_llist$)))
  (A_llist$ (lNil$a) (lCons$a (lhd$a A$) (ltl$a A_llist$)))))
(declare-fun f$ () A_b_fun$)
(declare-fun x$ () A$)
(declare-fun uu$ () B_b_fun$)
(declare-fun xs$ () A_llist$)
(declare-fun uua$ () A_a_fun$)
(declare-fun xsa$ () A_llist$)
(declare-fun lmap$ (A_b_fun$ A_llist$) B_llist$)
(declare-fun llast$ (B_llist$) B$)
(declare-fun lmap$a (B_b_fun$ B_llist$) B_llist$)
(declare-fun lmap$b (A_a_fun$ A_llist$) A_llist$)
(declare-fun lmap$c (B_a_fun$ B_llist$) A_llist$)
(declare-fun lnull$ (A_llist$) Bool)
(declare-fun llast$a (A_llist$) A$)
(declare-fun lnull$a (B_llist$) Bool)
(declare-fun fun_app$ (B_b_fun$ B$) B$)
(declare-fun lfinite$ (A_llist$) Bool)
(declare-fun fun_app$a (A_a_fun$ A$) A$)
(declare-fun fun_app$b (A_b_fun$ A$) B$)
(declare-fun fun_app$c (B_a_fun$ B$) A$)
(declare-fun lfinite$a (B_llist$) Bool)
(assert (! (forall ((?v0 B$)) (! (= (fun_app$ uu$ ?v0) ?v0) :pattern ((fun_app$ uu$ ?v0)))) :named a0))
(assert (! (forall ((?v0 A$)) (! (= (fun_app$a uua$ ?v0) ?v0) :pattern ((fun_app$a uua$ ?v0)))) :named a1))
(assert (! (not (= (llast$ (lmap$ f$ (lCons$a x$ xsa$))) (fun_app$b f$ (llast$a (lCons$a x$ xsa$))))) :named a2))
(assert (! (not (lnull$ xs$)) :named a3))
(assert (! (lfinite$ xs$) :named a4))
(assert (! (lfinite$ xsa$) :named a5))
(assert (! (not (lnull$ (lCons$a x$ xsa$))) :named a6))
(assert (! (forall ((?v0 B$) (?v1 B_llist$) (?v2 B$) (?v3 B_llist$)) (= (= (lCons$ ?v0 ?v1) (lCons$ ?v2 ?v3)) (and (= ?v0 ?v2) (= ?v1 ?v3)))) :named a7))
(assert (! (forall ((?v0 A$) (?v1 A_llist$) (?v2 A$) (?v3 A_llist$)) (= (= (lCons$a ?v0 ?v1) (lCons$a ?v2 ?v3)) (and (= ?v0 ?v2) (= ?v1 ?v3)))) :named a8))
(assert (! (=> (not (lnull$ xsa$)) (= (llast$ (lmap$ f$ xsa$)) (fun_app$b f$ (llast$a xsa$)))) :named a9))
(assert (! (forall ((?v0 B_llist$)) (= (lmap$a uu$ ?v0) ?v0)) :named a10))
(assert (! (forall ((?v0 A_llist$)) (= (lmap$b uua$ ?v0) ?v0)) :named a11))
(assert (! (forall ((?v0 B$) (?v1 B$) (?v2 B_llist$)) (! (= (llast$ (lCons$ ?v0 (lCons$ ?v1 ?v2))) (llast$ (lCons$ ?v1 ?v2))) :pattern ((lCons$ ?v0 (lCons$ ?v1 ?v2))))) :named a12))
(assert (! (forall ((?v0 A$) (?v1 A$) (?v2 A_llist$)) (! (= (llast$a (lCons$a ?v0 (lCons$a ?v1 ?v2))) (llast$a (lCons$a ?v1 ?v2))) :pattern ((lCons$a ?v0 (lCons$a ?v1 ?v2))))) :named a13))
(assert (! (forall ((?v0 B_a_fun$) (?v1 B$) (?v2 B_llist$)) (! (= (lmap$c ?v0 (lCons$ ?v1 ?v2)) (lCons$a (fun_app$c ?v0 ?v1) (lmap$c ?v0 ?v2))) :pattern ((lmap$c ?v0 (lCons$ ?v1 ?v2))))) :named a14))
(assert (! (forall ((?v0 B_b_fun$) (?v1 B$) (?v2 B_llist$)) (! (= (lmap$a ?v0 (lCons$ ?v1 ?v2)) (lCons$ (fun_app$ ?v0 ?v1) (lmap$a ?v0 ?v2))) :pattern ((lmap$a ?v0 (lCons$ ?v1 ?v2))))) :named a15))
(assert (! (forall ((?v0 A_b_fun$) (?v1 A$) (?v2 A_llist$)) (! (= (lmap$ ?v0 (lCons$a ?v1 ?v2)) (lCons$ (fun_app$b ?v0 ?v1) (lmap$ ?v0 ?v2))) :pattern ((lmap$ ?v0 (lCons$a ?v1 ?v2))))) :named a16))
(assert (! (forall ((?v0 A_a_fun$) (?v1 A$) (?v2 A_llist$)) (! (= (lmap$b ?v0 (lCons$a ?v1 ?v2)) (lCons$a (fun_app$a ?v0 ?v1) (lmap$b ?v0 ?v2))) :pattern ((lmap$b ?v0 (lCons$a ?v1 ?v2))))) :named a17))
(assert (! (forall ((?v0 B_a_fun$) (?v1 B_llist$) (?v2 A$) (?v3 A_llist$)) (= (= (lmap$c ?v0 ?v1) (lCons$a ?v2 ?v3)) (exists ((?v4 B$) (?v5 B_llist$)) (and (= ?v1 (lCons$ ?v4 ?v5)) (and (= ?v2 (fun_app$c ?v0 ?v4)) (= ?v3 (lmap$c ?v0 ?v5))))))) :named a18))
(assert (! (forall ((?v0 B_b_fun$) (?v1 B_llist$) (?v2 B$) (?v3 B_llist$)) (= (= (lmap$a ?v0 ?v1) (lCons$ ?v2 ?v3)) (exists ((?v4 B$) (?v5 B_llist$)) (and (= ?v1 (lCons$ ?v4 ?v5)) (and (= ?v2 (fun_app$ ?v0 ?v4)) (= ?v3 (lmap$a ?v0 ?v5))))))) :named a19))
(assert (! (forall ((?v0 A_b_fun$) (?v1 A_llist$) (?v2 B$) (?v3 B_llist$)) (= (= (lmap$ ?v0 ?v1) (lCons$ ?v2 ?v3)) (exists ((?v4 A$) (?v5 A_llist$)) (and (= ?v1 (lCons$a ?v4 ?v5)) (and (= ?v2 (fun_app$b ?v0 ?v4)) (= ?v3 (lmap$ ?v0 ?v5))))))) :named a20))
(assert (! (forall ((?v0 A_a_fun$) (?v1 A_llist$) (?v2 A$) (?v3 A_llist$)) (= (= (lmap$b ?v0 ?v1) (lCons$a ?v2 ?v3)) (exists ((?v4 A$) (?v5 A_llist$)) (and (= ?v1 (lCons$a ?v4 ?v5)) (and (= ?v2 (fun_app$a ?v0 ?v4)) (= ?v3 (lmap$b ?v0 ?v5))))))) :named a21))
(assert (! (forall ((?v0 B_a_fun$) (?v1 B_llist$)) (= (lnull$ (lmap$c ?v0 ?v1)) (lnull$a ?v1))) :named a22))
(assert (! (forall ((?v0 B_b_fun$) (?v1 B_llist$)) (= (lnull$a (lmap$a ?v0 ?v1)) (lnull$a ?v1))) :named a23))
(assert (! (forall ((?v0 A_b_fun$) (?v1 A_llist$)) (= (lnull$a (lmap$ ?v0 ?v1)) (lnull$ ?v1))) :named a24))
(assert (! (forall ((?v0 A_a_fun$) (?v1 A_llist$)) (= (lnull$ (lmap$b ?v0 ?v1)) (lnull$ ?v1))) :named a25))
(assert (! (forall ((?v0 B_a_fun$) (?v1 B_llist$)) (= (lfinite$ (lmap$c ?v0 ?v1)) (lfinite$a ?v1))) :named a26))
(assert (! (forall ((?v0 B_b_fun$) (?v1 B_llist$)) (= (lfinite$a (lmap$a ?v0 ?v1)) (lfinite$a ?v1))) :named a27))
(assert (! (forall ((?v0 A_a_fun$) (?v1 A_llist$)) (= (lfinite$ (lmap$b ?v0 ?v1)) (lfinite$ ?v1))) :named a28))
(assert (! (forall ((?v0 A_b_fun$) (?v1 A_llist$)) (= (lfinite$a (lmap$ ?v0 ?v1)) (lfinite$ ?v1))) :named a29))
(assert (! (forall ((?v0 B$) (?v1 B_llist$)) (! (= (lfinite$a (lCons$ ?v0 ?v1)) (lfinite$a ?v1)) :pattern ((lCons$ ?v0 ?v1)))) :named a30))
(assert (! (forall ((?v0 A$) (?v1 A_llist$)) (! (= (lfinite$ (lCons$a ?v0 ?v1)) (lfinite$ ?v1)) :pattern ((lCons$a ?v0 ?v1)))) :named a31))
(assert (! (forall ((?v0 B$) (?v1 B_llist$)) (! (= (lfinite$a (lCons$ ?v0 ?v1)) (lfinite$a ?v1)) :pattern ((lCons$ ?v0 ?v1)))) :named a32))
(assert (! (forall ((?v0 A$) (?v1 A_llist$)) (! (= (lfinite$ (lCons$a ?v0 ?v1)) (lfinite$ ?v1)) :pattern ((lCons$a ?v0 ?v1)))) :named a33))
(assert (! (forall ((?v0 B$) (?v1 B_llist$)) (! (= (llast$ (lCons$ ?v0 ?v1)) (ite (lnull$a ?v1) ?v0 (llast$ ?v1))) :pattern ((lCons$ ?v0 ?v1)))) :named a34))
(assert (! (forall ((?v0 A$) (?v1 A_llist$)) (! (= (llast$a (lCons$a ?v0 ?v1)) (ite (lnull$ ?v1) ?v0 (llast$a ?v1))) :pattern ((lCons$a ?v0 ?v1)))) :named a35))
(assert (! (forall ((?v0 B_llist$)) (= (not (lnull$a ?v0)) (exists ((?v1 B$) (?v2 B_llist$)) (= ?v0 (lCons$ ?v1 ?v2))))) :named a36))
(assert (! (forall ((?v0 A_llist$)) (= (not (lnull$ ?v0)) (exists ((?v1 A$) (?v2 A_llist$)) (= ?v0 (lCons$a ?v1 ?v2))))) :named a37))
(assert (! (forall ((?v0 B_llist$) (?v1 B$) (?v2 B_llist$)) (=> (= ?v0 (lCons$ ?v1 ?v2)) (not (lnull$a ?v0)))) :named a38))
(assert (! (forall ((?v0 A_llist$) (?v1 A$) (?v2 A_llist$)) (=> (= ?v0 (lCons$a ?v1 ?v2)) (not (lnull$ ?v0)))) :named a39))
(check-sat)
;(get-unsat-core)
